(declare-datatypes () ((Nat (succ (pred Nat)) (zero))))
(declare-datatypes () ((Lst (cons (head Nat) (tail Lst)) (nil))))
(declare-datatypes () ((Tree (node (data Nat) (left Tree) (right Tree)) (leaf))))
(declare-datatypes () ((Pair (mkpair (first Nat) (second Nat)))
                       (ZLst (zcons (zhead Pair) (ztail ZLst)) (znil))))
(declare-fun P (Nat) Bool)
(declare-fun f (Nat) Nat)
(declare-fun less (Nat Nat) Bool)
(declare-fun plus (Nat Nat) Nat)
(declare-fun minus (Nat Nat) Nat)
(declare-fun mult (Nat Nat) Nat)
(declare-fun nmax (Nat Nat) Nat)
(declare-fun nmin (Nat Nat) Nat)
(declare-fun append (Lst Lst) Lst)
(declare-fun len (Lst) Nat)
(declare-fun drop (Nat Lst) Lst)
(declare-fun take (Nat Lst) Lst)
(declare-fun count (Nat Lst) Nat)
(declare-fun last (Lst) Nat)
(declare-fun butlast (Lst) Lst)
(declare-fun mem (Nat Lst) Bool)
(declare-fun delete (Nat Lst) Lst)
(declare-fun rev (Lst) Lst)
(declare-fun lmap (Lst) Lst)
(declare-fun filter (Lst) Lst)
(declare-fun dropWhile (Lst) Lst)
(declare-fun takeWhile (Lst) Lst)
(declare-fun ins1 (Nat Lst) Lst)
(declare-fun insort (Nat Lst) Lst)
(declare-fun sorted (Lst) Bool)
(declare-fun sort (Lst) Lst)
(declare-fun zip (Lst Lst) ZLst)
(declare-fun zappend (ZLst ZLst) ZLst)
(declare-fun zdrop (Nat ZLst) ZLst)
(declare-fun ztake (Nat ZLst) ZLst)
(declare-fun zrev (ZLst) ZLst)
(declare-fun mirror (Tree) Tree)
(declare-fun height (Tree) Nat)
(declare-fun eq (Nat Nat) Bool)
(define-fun leq ((x Nat) (y Nat)) Bool (or (= x y) (less x y)))
(assert (forall ((x Lst)) (= (append nil x) x)))
(assert (forall ((x Nat) (y Lst) (z Lst)) (= (append (cons x y) z) (cons x (append y z)))))
(assert (forall ((x Nat)) (= (count x nil) zero)))
(assert (forall ((x Nat) (y Nat) (z Lst)) (= (count x (cons y z)) (ite (eq x y) (succ (count x z)) (count x z)))))
(assert (eq zero zero))
(assert (forall ((y Nat)) (not (eq zero (succ y)))))
(assert (forall ((x Nat)) (not (eq (succ x) zero))))
(assert (forall ((x Nat) (y Nat)) (= (eq (succ x) (succ y)) (eq x y))))
(assert (not 
(forall ((n Nat) (h Nat) (x Lst)) (=> (not (eq n h)) (= (count n (append x (cons h nil))) (count n x)))) ; G77
))
(check-sat)
